50
15620

280 734
169 474
444 975
894 759
506 273
588 458
389 330
205 32
723 552
904 157
74 190
238 591
746 726
691 621
971 37
624 643
762 216
90 438
309 667
593 327
454 632
874 834
39 14
500 866
754 91
562 672
970 495
5 793
212 546
754 286
161 949
442 74
599 524
738 698
821 291
858 733
568 344
415 14
744 990
936 585
187 233
419 200
845 485
982 143
788 321
747 740
979 248
597 899
862 297
625 839
